(set-info :Origin "This instance was generated by: BanditFuzz-- an RL fuzzer for SMT solvers" )
(set-info :Author "Joe Scott, Fed Mora, Vijay Ganesh" )
(set-info :Contact "Joe Scott, joseph.scott@uwaterloo.ca")
(set-logic QF_BV)
(declare-const bool_0 Bool)
(declare-const bool_1 Bool)
(declare-const bool_2 Bool)
(declare-const bool_3 Bool)
(declare-const bool_4 Bool)
(declare-const bv_0 (_ BitVec 32))
(declare-const bv_1 (_ BitVec 32))
(declare-const bv_2 (_ BitVec 32))
(declare-const bv_3 (_ BitVec 32))
(declare-const bv_4 (_ BitVec 32))
(assert (or (bvslt (bvsdiv #x35c9ef5a  bv_3) (bvsub #x048e52ce  #x487331e2 )) (not (xor bool_4 bool_0))))
(assert (bvslt (bvxnor (bvor #x4bf8071e  #x435c4d92 ) (bvsmod bv_0 bv_3)) (bvxor (bvnand #x81cce3e4  #xdbfdb8f8 ) (bvlshr bv_1 bv_3))))
(assert (=> (or (bvuge bv_1 #x0cc1350f ) (bvsle #x52f03ed6  bv_2)) (bvsgt (bvand #x66e633b0  #x9ae5be1c ) (bvsmod bv_3 #x1f8dbb7b ))))
(assert (bvsle (bvor (bvnor #xfed4db27  bv_1) (bvsrem #x16cd2717  #x63644e5a )) (bvmul (bvor #x758caa35  #x2921269a ) (bvadd #xa21e2f37  bv_0))))
(assert (bvsgt (bvsdiv (bvurem bv_4 bv_0) (bvor #x2abbe314  #x4e0263a6 )) (bvshl (bvor bv_4 #x52f6bbde ) (bvsrem #xf7e91b09  #x780801e3 ))))
(check-sat)
(exit)
